;test regex $ sed -r -i 's/^((\w+\*){3})\w*(.*)/\1abc123\3/g' file.txt
(declare-const X String)
(assert (str.in_re X (re.++ (re.++ (str.to_re "") (re.++ (str.to_re " ") (re.++ (str.to_re "s") (re.++ (str.to_re "e") (re.++ (str.to_re "d") (re.++ (str.to_re " ") (re.++ (str.to_re "-") (re.++ (str.to_re "r") (re.++ (str.to_re " ") (re.++ (str.to_re "-") (re.++ (str.to_re "i") (re.++ (str.to_re " ") (re.++ (str.to_re "\u{27}") (re.++ (str.to_re "s") (str.to_re "/"))))))))))))))) (re.++ (str.to_re "") (re.++ ((_ re.loop 3 3) (re.++ (re.+ (re.union (re.range "a" "z") (re.union (re.range "A" "Z") (re.union (re.range "0" "9") (str.to_re "_"))))) (str.to_re "*"))) (re.++ (re.* (re.union (re.range "a" "z") (re.union (re.range "A" "Z") (re.union (re.range "0" "9") (str.to_re "_"))))) (re.++ (re.* (re.diff re.allchar (str.to_re "\n"))) (re.++ (str.to_re "/") (re.++ (_ re.reference 1) (re.++ (str.to_re "a") (re.++ (str.to_re "b") (re.++ (str.to_re "c") (re.++ (str.to_re "123") (re.++ (_ re.reference 3) (re.++ (str.to_re "/") (re.++ (str.to_re "g") (re.++ (str.to_re "\u{27}") (re.++ (str.to_re " ") (re.++ (str.to_re "f") (re.++ (str.to_re "i") (re.++ (str.to_re "l") (re.++ (str.to_re "e") (re.++ (re.diff re.allchar (str.to_re "\n")) (re.++ (str.to_re "t") (re.++ (str.to_re "x") (str.to_re "t"))))))))))))))))))))))))))
; sanitize danger characters:  < > ' " &
(assert (not (str.in_re X (re.++ re.all (re.union (str.to_re "\u{3c}") (str.to_re "\u{3e}") (str.to_re "\u{27}") (str.to_re "\u{22}") (str.to_re "\u{26}")) re.all))))
(assert (< 9 (str.len X)))
(check-sat)
(get-model)